Traveling Salesman Problem/TSP_generados/Aleatorio1621103463_14.tsp
NAME: Aleatorio1621103463_14.tsp
COMMENT: Randomly generated scenario
TYPE: TSP
DIMENSION: 14
EDGE_WEIGHT_TYPE: ATT
NODE_COORD_SECTION
1 36.37 38.15
2 23.89 45.22
3 0.36 2.41
4 36.91 41.15
5 25.16 14.44
6 35.98 22.02
7 39.53 35.39
8 23.9 20.67
9 49.61 38.13
10 38.98 42.74
11 38.48 46.57
12 5.0 36.83
13 5.92 44.66
14 5.62 15.37
