Traveling Salesman Problem/TSP_generados/Aleatorio1621103463_14.opt.tour
NAME: Aleatorio1621103463_14.opt.tour
COMMENT: Optimal solution for Aleatorio1621103463_14 (167.31032746386356)
TYPE: TOUR
DIMENSION: 14
TOUR_SECTION
1 7 9 6 8 5 3 14 12 13 2 11 10 4
-1
EOF
